benchmark_str_length/p2_10_11-2.dzn
Alphabet = {A,C,G,T};
ns = 10;
nc = 11;
sl = 11;
neighbours = [| I(A),I(G),I(A),I(T),I(C),I(T),Null,Null,Null,Null,Null | I(T),I(A),I(A),Null,Null,Null,Null,Null,Null,Null,Null | I(A),I(G),I(T),I(A),I(G),I(G),I(T),I(T),I(G),I(T),Null | I(T),I(G),I(C),I(C),I(G),Null,Null,Null,Null,Null,Null | I(C),I(T),I(A),Null,Null,Null,Null,Null,Null,Null,Null | I(G),I(T),I(T),I(C),I(G),I(C),I(A),Null,Null,Null,Null | I(T),I(T),I(T),I(T),I(C),I(G),I(A),I(G),I(T),I(A),I(A) | I(A),I(C),I(T),I(T),Null,Null,Null,Null,Null,Null,Null | I(T),I(C),Null,Null,Null,Null,Null,Null,Null,Null,Null | I(T),I(C),I(A),Null,Null,Null,Null,Null,Null,Null,Null |];
