benchmark_str_length/p2_10_11-2.txt
{
	"num_strings": 10,
	"alphabet": "ACGT",
	"strings": [
		"AGATCT",
		"TAA",
		"AGTAGGTTGT",
		"TGCCG",
		"CTA",
		"GTTCGCA",
		"TTTTCGAGTAA",
		"ACTT",
		"TC",
		"TCA"
	],
	"str_length":[6,3,10,5,3,7,11,4,2,3]
}